10 10 4

0 141 347 129 288 230 361 250 128 88 
443 0 181 159 321 333 407 432 276 100 
342 221 0 136 316 499 56 83 130 301 
55 499 315 0 309 346 368 389 133 304 
456 89 138 494 0 482 476 360 302 308 
266 441 84 73 489 0 462 366 305 460 
372 94 90 173 99 295 0 194 115 347 
268 210 187 71 165 226 159 0 365 208 
341 431 216 149 404 156 390 427 0 352 
351 292 156 67 370 200 314 249 457 0 

77.2 0 7
77.2 1 5
77.2 2 5
77.2 3 7
77.2 4 5
77.2 5 1
77.2 6 0
77.2 7 0
77.2 8 7
77.2 9 3

